2240
42 88
97 24
421 100
372 43
380 96
298 79
31 30
394 62
132 3
373 27
32 30
222 75
271 17
377 63
397 64
434 43
27 32
317 4
180 65
344 22
282 98
344 92
410 13
61 58
9 16
178 51
89 7
117 89
306 19
139 93
432 90
272 39
194 32
42 26
26 5
168 75
277 95
222 59
185 34
96 10
419 76
22 70
17 29
30 54
371 24
425 51
28 50
13 84
314 65
224 99
385 20
157 46
328 49
207 50
29 55
291 16
391 80
278 34
131 15
393 80
